
Gurobi 9.1.1 (mac64, gurobi_cl) logging started Mon Mar  8 19:12:34 2021

Academic license - for non-commercial use only - expires 2021-04-06
Using license file /Users/agnese/gurobi.lic
Set parameter LogFile to value gurobi.log

Gurobi Optimizer version 9.1.1 build v9.1.1rc0 (mac64)
Copyright (c) 2020, Gurobi Optimization, LLC

Read LP format model from file /Users/agnese/Documents/KTH-Work/GitHub_repositories/KTH-dESA/GLUCOSE/results/FINAL_2060/4.1_Baseline/BASELINE_new4/new4_gurobi/Baseline_new4.lp
Reading time = 0.46 seconds
cost: 55902 rows, 46410 columns, 511416 nonzeros
Thread count: 2 physical cores, 4 logical processors, using up to 4 threads
Optimize a model with 55902 rows, 46410 columns and 511416 nonzeros
Model fingerprint: 0x4f89cc76
Coefficient statistics:
  Matrix range     [2e-08, 6e+03]
  Objective range  [7e-08, 4e+11]
  Bounds range     [0e+00, 0e+00]
  RHS range        [1e-04, 1e+06]
Warning: Model contains large objective coefficients
         Consider reformulating model or setting NumericFocus parameter
         to avoid numerical issues.

Concurrent LP optimizer: dual simplex and barrier
Showing barrier log only...

Presolve removed 30442 rows and 28329 columns
Presolve time: 0.26s
Presolved: 25460 rows, 18231 columns, 345369 nonzeros

Ordering time: 0.64s

Barrier statistics:
 AA' NZ     : 1.268e+06
 Factor NZ  : 7.103e+06 (roughly 70 MBytes of memory)
 Factor Ops : 5.332e+09 (less than 1 second per iteration)
 Threads    : 1

                  Objective                Residual
Iter       Primal          Dual         Primal    Dual     Compl     Time
   0   5.03792233e+20 -3.79596917e+17  9.31e+08 2.08e+12  3.50e+16     2s
   1   2.71127780e+20 -5.03927817e+17  9.15e+08 1.98e+12  3.41e+16     2s
   2   2.65591725e+20 -8.59023736e+17  6.86e+08 1.77e+12  2.79e+16     3s
   3   1.45561534e+20 -3.20120504e+18  3.25e+08 4.65e+11  1.55e+16     3s
   4   3.41604002e+19 -3.47618979e+18  7.04e+07 3.82e+10  3.73e+15     4s
   5   3.03979669e+18 -2.68470263e+18  6.23e+06 2.57e+09  3.75e+14     4s
   6   9.20632444e+17 -1.56294686e+18  1.90e+06 6.26e+08  1.25e+14     5s
   7   1.36224782e+17 -7.60168903e+17  2.76e+05 1.45e+08  2.87e+13     5s
   8   1.06186290e+17 -6.02155573e+17  2.17e+05 1.09e+08  2.23e+13     6s
   9   2.16528458e+16 -1.27507261e+17  4.33e+04 1.30e+07  4.60e+12     6s
  10   7.17345247e+15 -4.36153726e+16  1.39e+04 3.78e+06  1.54e+12     7s
  11   3.16955012e+15 -7.13113627e+15  6.07e+03 2.78e+05  4.25e+11     7s
  12   7.66157936e+14 -3.88027650e+15  1.43e+03 1.25e+05  1.43e+11     8s
  13   3.42200216e+14 -1.64376297e+15  6.16e+02 2.06e+04  5.85e+10     9s
  14   8.04775000e+13 -6.05658294e+14  1.18e+02 5.87e+03  1.69e+10     9s
  15   3.01571682e+13 -2.18390101e+14  3.74e+01 1.65e+03  5.83e+09    10s
  16   1.42383214e+13 -1.01617505e+14  1.32e+01 6.85e+02  2.62e+09    10s
  17   6.33996001e+12 -5.69553688e+13  2.85e+00 3.52e+02  1.38e+09    11s
  18   1.35792183e+12 -9.11172170e+12  3.09e-01 3.47e+01  2.21e+08    11s
  19   6.16797937e+10 -4.54373001e+11  8.67e-03 2.89e-01  1.07e+07    12s
  20   2.77690781e+09 -3.41261892e+10  3.47e-08 8.79e-03  7.61e+05    12s
  21   4.51571742e+08 -2.18952351e+09  4.31e-09 7.32e-04  5.45e+04    13s
  22   8.16655217e+07 -4.48538128e+08  2.13e-09 4.88e-04  1.09e+04    13s
  23   6.42523772e+06 -7.30522690e+07  1.58e-09 2.44e-04  1.64e+03    14s
  24   1.51301814e+06 -2.73769459e+06  2.53e-09 4.88e-04  8.77e+01    15s
  25   4.38718654e+05 -3.08466436e+05  9.59e-10 2.44e-04  1.54e+01    15s
  26   3.48314533e+05  1.31087331e+05  2.08e-09 1.22e-04  4.48e+00    16s
  27   2.94632410e+05  2.37013362e+05  1.73e-09 2.44e-04  1.19e+00    17s
  28   2.81571024e+05  2.53918621e+05  1.23e-09 2.44e-04  5.70e-01    17s
  29   2.76361702e+05  2.59410344e+05  8.91e-10 2.44e-04  3.50e-01    18s
  30   2.67130992e+05  2.64198029e+05  1.21e-09 2.44e-04  6.05e-02    18s
  31   2.65651687e+05  2.65252226e+05  6.83e-09 4.88e-04  8.33e-03    19s
  32   2.65521532e+05  2.65332899e+05  1.40e-08 2.44e-04  4.02e-03    20s
  33   2.65456382e+05  2.65415231e+05  2.16e-08 2.44e-04  9.91e-04    20s
  34   2.65445799e+05  2.65426299e+05  1.25e-08 2.44e-04  5.26e-04    21s
  35   2.65431087e+05  2.65430073e+05  2.70e-08 2.44e-04  5.50e-05    22s
  36   2.65430474e+05  2.65429840e+05  1.76e-08 2.44e-04  3.17e-05    22s
  37   2.65429695e+05  2.65429647e+05  2.37e-09 2.44e-04  2.52e-06    23s
  38   2.65429651e+05  2.65429638e+05  2.50e-06 2.44e-04  5.50e-07    24s
  39   2.65429645e+05  2.65429640e+05  1.08e-06 2.44e-04  2.04e-07    24s
  40   2.65429641e+05  2.65429641e+05  1.02e-07 2.44e-04  3.08e-08    25s
  41   2.65429641e+05  2.65429641e+05  1.53e-08 2.44e-04  3.56e-09    25s

Barrier solved model in 41 iterations and 25.24 seconds
Optimal objective 2.65429641e+05

Crossover log...

    6371 DPushes remaining with DInf 0.0000000e+00                25s
       0 DPushes remaining with DInf 0.0000000e+00                26s

    3582 PPushes remaining with PInf 1.3195219e-03                26s
       0 PPushes remaining with PInf 4.3094314e-06                26s

  Push phase complete: Pinf 4.3094314e-06, Dinf 9.0220879e-02     26s

Iteration    Objective       Primal Inf.    Dual Inf.      Time
    7306    2.6542964e+05   0.000000e+00   9.022088e-02     26s
Extra simplex iterations after uncrush: 64
    7565    2.6542964e+05   0.000000e+00   0.000000e+00     26s

Solved with barrier
Solved in 7565 iterations and 26.06 seconds
Optimal objective  2.654296406e+05

Wrote result file 'Baseline_new4_gurobi.sol'

